SCIP version 5.0.0 [precision: 8 byte] [memory: block] [mode: optimized] [LP solver: NONE] [GitHash: 3bbd232]
Copyright (C) 2002-2017 Konrad-Zuse-Zentrum fuer Informationstechnik Berlin (ZIB)

External codes: 
  Readline EditLine w  GNU library for command line editing (gnu.org/s/readline)
  CppAD 20160000.1     Algorithmic Differentiation of C++ algorithms developed by B. Bell (www.coin-or.org/CppAD)
  ZLIB 1.2.5           General purpose compression library by J. Gailly and M. Adler (zlib.net)
  GMP 6.1.2            GNU Multiple Precision Arithmetic Library developed by T. Granlund (gmplib.org)

user parameter file <scip.set> not found - using default parameters

read problem <../../Split_data/output/spectf/8/4_sample_spectf.logreg>
============

File name	:	../../Split_data/output/spectf/8/4_sample_spectf.logreg
Problem name 	:	4_sample_spectf
Number of data	:	213
Number of var	:	44
The given data has linear independence

[dim=1] time: 0.008527
[dim=2] time: 0.01686
[dim=3] time: 0.024727
[dim=4] time: 0.031873
[dim=5] time: 0.038809
[dim=6] time: 0.04492
[dim=7] time: 0.051494
[dim=8] time: 0.057567
[dim=9] time: 0.063749
[dim=10] time: 0.069581
[dim=11] time: 0.075423
[dim=12] time: 0.080824
[dim=13] time: 0.085969
[dim=14] time: 0.09184
[dim=15] time: 0.097088
[dim=16] time: 0.102106
[dim=17] time: 0.106978
[dim=18] time: 0.111793
[dim=19] time: 0.117009
[dim=20] time: 0.12193
[dim=21] Time of forward = 0.127163sec.
AIC: 136.297
k: 20

[dim=44] time: 0.02874
[dim=43] time: 0.043774
[dim=42] time: 0.057237
[dim=41] time: 0.074695
[dim=40] time: 0.089527
[dim=39] time: 0.106243
[dim=38] time: 0.122645
[dim=37] time: 0.135914
[dim=36] time: 0.147625
[dim=35] time: 0.162522
[dim=34] time: 0.176684
[dim=33] time: 0.19034
[dim=32] time: 0.203593
[dim=31] time: 0.213704
[dim=30] time: 0.224427
[dim=29] time: 0.233106
[dim=28] time: 0.242582
[dim=27] time: 0.25158
[dim=26] time: 0.259388
[dim=25] time: 0.267334
[dim=24] time: 0.273593
[dim=23] time: 0.280709
[dim=22] time: 0.287699
[dim=21] time: 0.293144
[dim=20] time: 0.30017
[dim=19] Time of backward = 0.306442sec.
AIC: 136.297
k: 20
